BEGIN IONS
TITLE=Example_0
SMILES=CC1=CC(=O)OC2=CC(OS(O)(=O)=O)=CC=C12
PRECURSORTYPE=[M-H]-
COLLISIONENERGY=17.0
INSTRUMENTTYPE=HCD
CCS=158.21507263183594
COMMENT="In silico generated spectrum by Fiora (pre-release version v0.0.0)"
254.99578536409004 0.40442100167274475
177.05462056809 0.02174900844693184
175.03897050409 0.5144929885864258
174.031694052 0.017558248713612556
79.95681486000001 0.023242156952619553
END IONS
BEGIN IONS
TITLE=Example_1
SMILES=CC12CCC3C(CCC4=CC(OS(O)(=O)=O)=CC=C34)C1CCC2=O
PRECURSORTYPE=[M-H]-
COLLISIONENERGY=24.0
INSTRUMENTTYPE=HCD
CCS=192.4042205810547
COMMENT="In silico generated spectrum by Fiora (pre-release version v0.0.0)"
349.11042119209003 0.7100592255592346
96.95900593209001 0.010450026951730251
269.15360633209 0.24258960783481598
79.95681486000001 0.02474999614059925
END IONS
BEGIN IONS
TITLE=Example_2
SMILES=ClC1=CC=C(NC(=O)NC2=CC=C(Cl)C(Cl)=C2)C=C1
PRECURSORTYPE=[M-H]-
COLLISIONENERGY=21.0
INSTRUMENTTYPE=HCD
CCS=162.17343139648438
COMMENT="In silico generated spectrum by Fiora (pre-release version v0.0.0)"
312.96967233609007 0.12887908518314362
127.01887687199999 0.06038592383265495
126.01050326008999 0.14398926496505737
160.97990452 0.011236757040023804
159.97153090809 0.6081873178482056
END IONS
BEGIN IONS
TITLE=Example_3
SMILES=Oc1c(Cl)cc(Cl)cc1C(=O)Nc1ccc(Cl)c(Cl)c1
PRECURSORTYPE=[M-H]-
COLLISIONENERGY=24.0
INSTRUMENTTYPE=HCD
CCS=157.94784545898438
COMMENT="In silico generated spectrum by Fiora (pre-release version v0.0.0)"
347.91471557209 0.6998858451843262
160.95554649609 0.2161969095468521
159.97153090809 0.03662379831075668
END IONS
BEGIN IONS
TITLE=Example_4
SMILES=NC(=O)\C=C\C1=CC=CC=C1
PRECURSORTYPE=[M+H]+
COLLISIONENERGY=10.0
INSTRUMENTTYPE=HCD
CCS=152.23971557617188
COMMENT="In silico generated spectrum by Fiora (pre-release version v0.0.0)"
148.07569036009 0.07570755481719971
131.04914126409 0.3917992115020752
130.06512567609 0.023586224764585495
44.01309010409 0.010768131352961063
105.06987670808999 0.012973221950232983
103.05422664409 0.39400166273117065
70.02874016809 0.05628650635480881
77.03857658009 0.011579067446291447
END IONS
BEGIN IONS
TITLE=Example_5
SMILES=ClC1=CC2=C(C=C1)N(C1CCN(CCCN3C(=O)NC4=C3C=CC=C4)CC1)C(=O)N2
PRECURSORTYPE=[M+H]+
COLLISIONENERGY=29.0
INSTRUMENTTYPE=HCD
CCS=189.85919189453125
COMMENT="In silico generated spectrum by Fiora (pre-release version v0.0.0)"
426.16912914009004 0.3036513328552246
175.08658939209 0.1761031299829483
264.08981620009 0.10233240574598312
147.05528926409 0.3506987690925598
END IONS
BEGIN IONS
TITLE=Example_6
SMILES=C1CCC(CC1)NC1=NC2=CC=CC=C2S1
PRECURSORTYPE=[M+H]+
COLLISIONENERGY=16.0
INSTRUMENTTYPE=HCD
CCS=162.21900939941406
COMMENT="In silico generated spectrum by Fiora (pre-release version v0.0.0)"
233.11069596408998 0.7664613127708435
83.08552677208999 0.013287427835166454
151.03244564409 0.22415632009506226
END IONS
BEGIN IONS
TITLE=Example_7
SMILES=CCCCC1=C(C)N=C(NCC)N=C1OS(=O)(=O)N(C)C
PRECURSORTYPE=[M+H]+
COLLISIONENERGY=22.0
INSTRUMENTTYPE=HCD
CCS=182.61839294433594
COMMENT="In silico generated spectrum by Fiora (pre-release version v0.0.0)"
317.16418808009 0.18145914375782013
289.13288795209 0.06197262927889824
210.16008868008998 0.058531783521175385
208.14443861608999 0.01351053174585104
108.01137585209 0.6578685641288757
272.10633885609 0.04393013194203377
END IONS
BEGIN IONS
TITLE=Example_8
SMILES=CC(C)(C)C1=CC=C(C=C1)C(=O)CCCN1CCC(CC1)OC(C1=CC=CC=C1)C1=CC=CC=C1
PRECURSORTYPE=[M+H]+
COLLISIONENERGY=32.0
INSTRUMENTTYPE=HCD
CCS=229.1715850830078
COMMENT="In silico generated spectrum by Fiora (pre-release version v0.0.0)"
470.30535594009 0.10608261078596115
57.06987670808999 0.014309048652648926
161.09609145609 0.061004821211099625
203.14304164809 0.2906666100025177
167.08552677209 0.4630533456802368
165.06987670809 0.015479529276490211
END IONS
BEGIN IONS
TITLE=Example_9
SMILES=FC1=CC(OC2=CC=C(C=C2Cl)C(F)(F)F)=CC=C1NC(=O)NC(=O)C1=C(F)C=CC=C1F
PRECURSORTYPE=[M+H]+
COLLISIONENERGY=34.0
INSTRUMENTTYPE=HCD
CCS=189.63926696777344
COMMENT="In silico generated spectrum by Fiora (pre-release version v0.0.0)"
489.04351566409 0.00041622776188887656
306.03033088809 0.041348159313201904
184.02046122809 0.0338246114552021
332.00959544409 0.0541328489780426
158.04119667209 0.6308494210243225
141.01464757609 0.24407517910003662
END IONS
