BEGIN IONS
TITLE=Example_0
SMILES=CC1=CC(=O)OC2=CC(OS(O)(=O)=O)=CC=C12
FORMULA=C10H8O6S
PRECURSOR_MZ=254.99688252391005
PRECURSORTYPE=[M-H]-
COLLISIONENERGY=17.0
INSTRUMENTTYPE=HCD
COMMENT="In silico generated spectrum by Fiora OS v0.1.0"
254.99688252391005 0.49404090642929077
239.97285884800002 0.0044182585552334785
159.04405588409 0.002223120303824544
177.05462056809 0.025992799550294876
176.047344116 0.0036823598202317953
175.03897050409 0.39410504698753357
174.031694052 0.00447998708114028
173.02332044009 0.002690818626433611
81.97246492400001 0.0023999614641070366
80.96409131209 0.028634363785386086
79.95681486000001 0.022089732810854912
78.94844124809 0.0016673927893862128
END IONS
BEGIN IONS
TITLE=Example_1
SMILES=CC12CCC3C(CCC4=CC(OS(O)(=O)=O)=CC=C34)C1CCC2=O
FORMULA=C18H22O5S
PRECURSOR_MZ=349.11151835191
PRECURSORTYPE=[M-H]-
COLLISIONENERGY=24.0
INSTRUMENTTYPE=HCD
COMMENT="In silico generated spectrum by Fiora OS v0.1.0"
349.11151835191 0.6893535256385803
251.14304164809 0.001002656645141542
96.95900593209001 0.005467028822749853
271.16925639609 0.00840982235968113
270.161979944 0.001340466202236712
269.15360633209 0.23516181111335754
268.14632988 0.0017715884605422616
267.13795626809 0.004172140266746283
81.97246492400001 0.0022933862637728453
80.96409131209 0.023456163704395294
79.95681486000001 0.014723573811352253
END IONS
BEGIN IONS
TITLE=Example_2
SMILES=ClC1=CC=C(NC(=O)NC2=CC=C(Cl)C(Cl)=C2)C=C1
FORMULA=C13H9Cl3N2O
PRECURSOR_MZ=312.97076949591
PRECURSORTYPE=[M-H]-
COLLISIONENERGY=21.0
INSTRUMENTTYPE=HCD
COMMENT="In silico generated spectrum by Fiora OS v0.1.0"
312.97076949591 0.052708614617586136
276.99299462409 0.001218588324263692
126.01050326008999 0.11667302250862122
187.96644552809 0.0021030153147876263
185.95079546409 0.0422278456389904
154.00541788009 0.001168221002444625
152.998141428 0.001572706620208919
151.98976781609 0.05981317162513733
160.97990452 0.0011015404015779495
159.97153090809 0.7243760824203491
157.95588084409 0.0013773385435342789
276.99299462409 0.006584571208804846
END IONS
BEGIN IONS
TITLE=Example_3
SMILES=Oc1c(Cl)cc(Cl)cc1C(=O)Nc1ccc(Cl)c(Cl)c1
FORMULA=C13H7Cl4NO2
PRECURSOR_MZ=347.91581273190997
PRECURSORTYPE=[M-H]-
COLLISIONENERGY=24.0
INSTRUMENTTYPE=HCD
COMMENT="In silico generated spectrum by Fiora OS v0.1.0"
347.91581273190997 0.39625340700149536
329.90415088809004 0.0037391232326626778
313.95368792409005 0.007955806329846382
312.946411472 0.0012892184313386679
311.93803786009005 0.06754681468009949
313.95368792409005 0.0018755708588287234
311.93803786009005 0.11075829714536667
160.95554649609 0.18055309355258942
159.948270044 0.0050489935092628
158.93989643209 0.004556635394692421
187.96644552809 0.002774267690256238
186.959169076 0.002064639702439308
185.95079546409 0.016121137887239456
188.95046111609 0.00646798312664032
186.93481105209 0.0025412084069103003
161.98718097209 0.006154629867523909
159.97153090809 0.12130064517259598
311.93803786009005 0.001723704393953085
311.93803786009 0.034459248185157776
END IONS
BEGIN IONS
TITLE=Example_4
SMILES=NC(=O)\C=C\C1=CC=CC=C1
FORMULA=C9H9NO
PRECURSOR_MZ=148.07569036009
PRECURSORTYPE=[M+H]+
COLLISIONENERGY=10.0
INSTRUMENTTYPE=HCD
COMMENT="In silico generated spectrum by Fiora OS v0.1.0"
148.07569036009 0.7296960353851318
18.03382554809 0.0026309117674827576
131.04914126409 0.12273705005645752
130.06512567609 0.006028282456099987
44.01309010409 0.007694596890360117
105.06987670808999 0.030062783509492874
103.05422664409 0.02928929775953293
60.044390232089995 0.004041737411171198
93.06987670808999 0.0012019913410767913
91.05422664409 0.02743842639029026
89.03857658009 0.005073926877230406
70.02874016809 0.015286915004253387
79.05422664409 0.017101455479860306
77.03857658009 0.006522794254124165
END IONS
BEGIN IONS
TITLE=Example_5
SMILES=ClC1=CC2=C(C=C1)N(C1CCN(CCCN3C(=O)NC4=C3C=CC=C4)CC1)C(=O)N2
FORMULA=C22H24ClN5O2
PRECURSOR_MZ=426.16912914009004
PRECURSORTYPE=[M+H]+
COLLISIONENERGY=29.0
INSTRUMENTTYPE=HCD
COMMENT="In silico generated spectrum by Fiora OS v0.1.0"
426.16912914009004 0.27200478315353394
391.20082504000004 0.006616424769163132
390.19245142809007 0.013004697859287262
252.08981620008998 0.01642698049545288
250.07416613608999 0.004681657534092665
176.094963004 0.0010908894473686814
175.08658939209 0.4270825982093811
173.07093932809 0.0036335524637252092
264.08981620009 0.04391307756304741
278.10546626409 0.005758221261203289
149.07093932809 0.011888468638062477
147.05528926409 0.1694655567407608
146.048012812 0.0014971784548833966
145.03963920009 0.0015730800805613399
END IONS
BEGIN IONS
TITLE=Example_6
SMILES=C1CCC(CC1)NC1=NC2=CC=CC=C2S1
FORMULA=C13H16N2S
PRECURSOR_MZ=233.11069596408998
PRECURSORTYPE=[M+H]+
COLLISIONENERGY=16.0
INSTRUMENTTYPE=HCD
COMMENT="In silico generated spectrum by Fiora OS v0.1.0"
233.11069596408998 0.7514726519584656
84.093900384 0.0012436441611498594
83.08552677208999 0.0038546717260032892
151.03244564409 0.2324676215648651
150.025169192 0.0025252134073525667
149.01679558009 0.0022923515643924475
136.02154661209 0.00556816766038537
END IONS
BEGIN IONS
TITLE=Example_7
SMILES=CCCCC1=C(C)N=C(NCC)N=C1OS(=O)(=O)N(C)C
FORMULA=C13H24N4O3S
PRECURSOR_MZ=317.16418808009
PRECURSORTYPE=[M+H]+
COLLISIONENERGY=22.0
INSTRUMENTTYPE=HCD
COMMENT="In silico generated spectrum by Fiora OS v0.1.0"
317.16418808009 0.5473005175590515
274.12198892009 0.0037778844125568867
272.10633885609 0.006113686133176088
46.06512567608999 0.002081451937556267
45.057849223999995 0.0012378324754536152
44.04947561208999 0.0032717729918658733
289.13288795209 0.01265844888985157
288.1256115 0.0018290759762749076
287.11723788809 0.001214291318319738
192.14952399608998 0.023151015862822533
126.02194053609 0.005235515534877777
125.014664084 0.0011548282345756888
124.00629047209 0.001494495663791895
210.16008868008998 0.0906665027141571
209.152812228 0.08950334042310715
208.14443861608999 0.06407720595598221
108.01137585209 0.00788318645209074
274.12198892009 0.0012838590191677213
272.10633885609 0.007665322162210941
46.06512567608999 0.012128394097089767
45.057849223999995 0.02222062088549137
44.04947561208999 0.03015725687146187
303.14853801609 0.0022780776489526033
302.141261564 0.0029769139364361763
301.13288795209 0.002926409710198641
END IONS
BEGIN IONS
TITLE=Example_8
SMILES=CC(C)(C)C1=CC=C(C=C1)C(=O)CCCN1CCC(CC1)OC(C1=CC=CC=C1)C1=CC=CC=C1
FORMULA=C32H39NO2
PRECURSOR_MZ=470.30535594009
PRECURSORTYPE=[M+H]+
COLLISIONENERGY=32.0
INSTRUMENTTYPE=HCD
COMMENT="In silico generated spectrum by Fiora OS v0.1.0"
470.30535594009 0.05272216722369194
57.06987670808999 0.00965918693691492
414.24275568409007 0.0016685046721249819
133.10117683609 0.0012800251133739948
336.1958054920901 0.003712249454110861
452.29479125609004 0.002419760450720787
161.09609145609 0.03652031347155571
308.20089087209004 0.004228377714753151
294.18524080809004 0.00257371598854661
204.15141526 0.001305093988776207
203.14304164809 0.17634399235248566
268.16959074409004 0.0020956615917384624
287.224914548 0.001623993506655097
286.21654093609004 0.040869325399398804
285.209264484 0.0020048804581165314
284.20089087209004 0.00849210936576128
185.09609145609 0.00264442409388721
183.08044139209 0.001061031362041831
304.22710562009 0.026514694094657898
303.219829168 0.01661529392004013
302.21145555609 0.10272156447172165
301.204179104 0.003906683064997196
300.19580549209 0.0038513680920004845
169.10117683609 0.0016144294058904052
168.093900384 0.021511755883693695
167.08552677209 0.3938639163970947
166.07825032 0.025549722835421562
165.06987670809 0.03994335979223251
77.03857658009 0.003904934274032712
END IONS
BEGIN IONS
TITLE=Example_9
SMILES=FC1=CC(OC2=CC=C(C=C2Cl)C(F)(F)F)=CC=C1NC(=O)NC(=O)C1=C(F)C=CC=C1F
FORMULA=C21H11ClF6N2O3
PRECURSOR_MZ=489.04351566409
PRECURSORTYPE=[M+H]+
COLLISIONENERGY=34.0
INSTRUMENTTYPE=HCD
COMMENT="In silico generated spectrum by Fiora OS v0.1.0"
489.04351566409 0.021121077239513397
469.03728741209 0.0015657254261896014
306.03033088809 0.04098854586482048
305.023054436 0.0019440476316958666
304.01468082409 0.007350177504122257
185.02883484 0.003766019130125642
184.02046122809 0.1205148994922638
334.02524550809 0.002376265823841095
333.01796905599997 0.008921906352043152
332.00959544409 0.24332931637763977
329.99394538009 0.0011160809081047773
158.04119667209 0.21879005432128906
157.03392022 0.001751089352183044
156.02554660809 0.0017402564408257604
347.02049447609005 0.0012106086360290647
143.03029764009 0.001782429520972073
142.023021188 0.007585475686937571
141.01464757609 0.2584792673587799
140.007371124 0.0014708165545016527
138.99899751209 0.0015636944444850087
471.03295098009005 0.0169079527258873
376.023782708 0.0012001856230199337
375.01540909609 0.011935858987271786
113.01973295609 0.0038612608332186937
END IONS
