BEGIN IONS
TITLE=Example_0
SMILES=CC1=CC(=O)OC2=CC(OS(O)(=O)=O)=CC=C12
FORMULA=C10H8O6S
PRECURSOR_MZ=254.99688252391005
PRECURSORTYPE=[M-H]-
COLLISIONENERGY=17.0
INSTRUMENTTYPE=HCD
COMMENT="In silico generated spectrum by FIORA OS v1.0.0"
254.99688252391005 0.10249782353639603
175.03897050409 0.8998936414718628
79.95681486000001 0.0028256061486899853
78.94844124809 0.013833488337695599
END IONS
BEGIN IONS
TITLE=Example_1
SMILES=CC12CCC3C(CCC4=CC(OS(O)(=O)=O)=CC=C34)C1CCC2=O
FORMULA=C18H22O5S
PRECURSOR_MZ=349.11151835191
PRECURSORTYPE=[M-H]-
COLLISIONENERGY=24.0
INSTRUMENTTYPE=HCD
COMMENT="In silico generated spectrum by FIORA OS v1.0.0"
349.11151835191 0.48840606212615967
269.15360633209 0.38144755363464355
96.95900593209001 0.006825148593634367
79.95681486000001 0.013012791983783245
78.94844124809 0.016454946249723434
END IONS
BEGIN IONS
TITLE=Example_2
SMILES=ClC1=CC=C(NC(=O)NC2=CC=C(Cl)C(Cl)=C2)C=C1
FORMULA=C13H9Cl3N2O
PRECURSOR_MZ=312.97076949591
PRECURSORTYPE=[M-H]-
COLLISIONENERGY=21.0
INSTRUMENTTYPE=HCD
COMMENT="In silico generated spectrum by FIORA OS v1.0.0"
312.97076949591 0.018920088186860085
185.95079546409 0.0022112084552645683
159.97153090809 0.7058976292610168
151.98976781609 0.0016656204825267196
126.01050326008999 0.27815863490104675
END IONS
BEGIN IONS
TITLE=Example_3
SMILES=Oc1c(Cl)cc(Cl)cc1C(=O)Nc1ccc(Cl)c(Cl)c1
FORMULA=C13H7Cl4NO2
PRECURSOR_MZ=347.91581273190997
PRECURSORTYPE=[M-H]-
COLLISIONENERGY=24.0
INSTRUMENTTYPE=HCD
COMMENT="In silico generated spectrum by FIORA OS v1.0.0"
347.91581273190997 0.5578215718269348
329.90415088809004 0.021741747856140137
311.93803786009005 0.02949785627424717
311.93803786009005 0.025505848228931427
311.93803786009 0.0028040737379342318
187.943184664 0.0018916291883215308
186.93481105209 0.004716126713901758
185.95079546409 0.005722920875996351
160.95554649609 0.1732669174671173
159.97153090809 0.24291226267814636
END IONS
BEGIN IONS
TITLE=Example_4
SMILES=NC(=O)\C=C\C1=CC=CC=C1
FORMULA=C9H9NO
PRECURSOR_MZ=148.07569036009
PRECURSORTYPE=[M+H]+
COLLISIONENERGY=10.0
INSTRUMENTTYPE=HCD
COMMENT="In silico generated spectrum by FIORA OS v1.0.0"
148.07569036009 0.38214489817619324
131.04914126409 0.6513072848320007
130.06512567609 0.02172805555164814
105.06987670808999 0.04527144506573677
103.05422664409 0.017540274187922478
89.03857658009 0.0019614307675510645
79.05422664409 0.0013046739622950554
70.02874016809 0.004036537371575832
44.01309010409 0.0018229922279715538
END IONS
BEGIN IONS
TITLE=Example_5
SMILES=ClC1=CC2=C(C=C1)N(C1CCN(CCCN3C(=O)NC4=C3C=CC=C4)CC1)C(=O)N2
FORMULA=C22H24ClN5O2
PRECURSOR_MZ=426.16912914009004
PRECURSORTYPE=[M+H]+
COLLISIONENERGY=29.0
INSTRUMENTTYPE=HCD
COMMENT="In silico generated spectrum by FIORA OS v1.0.0"
426.16912914009004 0.1141115128993988
278.10546626409 0.001590824918821454
264.08981620009 0.003280824748799205
252.08981620008998 0.00656276335939765
175.08658939209 0.8319822549819946
173.07093932809 0.0010528763523325324
149.07093932809 0.0013238820247352123
147.05528926409 0.002878079889342189
END IONS
BEGIN IONS
TITLE=Example_6
SMILES=C1CCC(CC1)NC1=NC2=CC=CC=C2S1
FORMULA=C13H16N2S
PRECURSOR_MZ=233.11069596408998
PRECURSORTYPE=[M+H]+
COLLISIONENERGY=16.0
INSTRUMENTTYPE=HCD
COMMENT="In silico generated spectrum by FIORA OS v1.0.0"
233.11069596408998 0.793633222579956
151.03244564409 0.18338143825531006
83.08552677208999 0.00411007646471262
END IONS
BEGIN IONS
TITLE=Example_7
SMILES=CCCCC1=C(C)N=C(NCC)N=C1OS(=O)(=O)N(C)C
FORMULA=C13H24N4O3S
PRECURSOR_MZ=317.16418808009
PRECURSORTYPE=[M+H]+
COLLISIONENERGY=22.0
INSTRUMENTTYPE=HCD
COMMENT="In silico generated spectrum by FIORA OS v1.0.0"
317.16418808009 0.3671191334724426
289.13288795209 0.002211296930909157
275.11723788809 0.008330592885613441
274.12198892009 0.003493711818009615
273.114712468 0.002175897127017379
273.10158782409 0.00247585354372859
272.10633885609 0.46421024203300476
210.16008868008998 0.046629395335912704
209.152812228 0.06815725564956665
208.14443861608999 0.03004693239927292
192.14952399608998 0.08220916241407394
108.01137585209 0.011747307144105434
46.06512567608999 0.018445324152708054
44.04947561208999 0.006799650378525257
END IONS
BEGIN IONS
TITLE=Example_8
SMILES=CC(C)(C)C1=CC=C(C=C1)C(=O)CCCN1CCC(CC1)OC(C1=CC=CC=C1)C1=CC=CC=C1
FORMULA=C32H39NO2
PRECURSOR_MZ=470.30535594009
PRECURSORTYPE=[M+H]+
COLLISIONENERGY=32.0
INSTRUMENTTYPE=HCD
COMMENT="In silico generated spectrum by FIORA OS v1.0.0"
470.30535594009 0.05220139026641846
452.29479125609004 0.0019497668836265802
304.22710562009 0.020323576405644417
302.21145555609 0.014498847536742687
293.177964356 0.0019854637794196606
286.21654093609004 0.0037326025776565075
268.16959074409004 0.0014080387772992253
203.14304164809 0.5277531147003174
167.08552677209 0.3204330503940582
166.07825032 0.0017640977166593075
165.06987670809 0.007047032937407494
161.09609145609 0.014353841543197632
57.06987670808999 0.005039169918745756
END IONS
BEGIN IONS
TITLE=Example_9
SMILES=FC1=CC(OC2=CC=C(C=C2Cl)C(F)(F)F)=CC=C1NC(=O)NC(=O)C1=C(F)C=CC=C1F
FORMULA=C21H11ClF6N2O3
PRECURSOR_MZ=489.04351566409
PRECURSORTYPE=[M+H]+
COLLISIONENERGY=34.0
INSTRUMENTTYPE=HCD
COMMENT="In silico generated spectrum by FIORA OS v1.0.0"
489.04351566409 0.0041694436222314835
332.00959544409 0.05559544265270233
306.03033088809 0.07919558882713318
305.023054436 0.0031394234392791986
194.98190347609 0.0014107143506407738
184.02046122809 0.008894345723092556
158.04119667209 0.3699120283126831
156.02554660809 0.001218484016135335
141.01464757609 0.49109455943107605
115.03538302009 0.0029358745086938143
END IONS
